c File: data_files/evolved_graphs/g3713.col
c
c Auto generated graph
c
p edge 100 1119
e 1 3
e 1 7
e 1 8
e 1 9
e 1 10
e 1 13
e 1 16
e 1 17
e 1 19
e 1 20
e 1 25
e 1 27
e 1 28
e 1 30
e 1 31
e 1 32
e 1 34
e 1 36
e 1 37
e 1 38
e 1 39
e 1 40
e 1 42
e 1 44
e 1 45
e 1 46
e 1 47
e 1 48
e 1 49
e 1 51
e 1 52
e 1 62
e 1 71
e 1 75
e 1 88
e 1 99
e 2 9
e 2 12
e 2 14
e 2 18
e 2 19
e 2 21
e 2 22
e 2 26
e 2 30
e 2 32
e 2 33
e 2 34
e 2 35
e 2 36
e 2 38
e 2 39
e 2 40
e 2 41
e 2 42
e 2 43
e 2 44
e 2 45
e 2 46
e 2 47
e 2 49
e 2 50
e 2 51
e 2 52
e 2 79
e 2 85
e 3 4
e 3 5
e 3 6
e 3 10
e 3 12
e 3 15
e 3 16
e 3 17
e 3 18
e 3 19
e 3 22
e 3 25
e 3 26
e 3 27
e 3 28
e 3 30
e 3 31
e 3 32
e 3 33
e 3 34
e 3 35
e 3 37
e 3 39
e 3 41
e 3 44
e 3 46
e 3 47
e 3 49
e 3 50
e 3 51
e 3 52
e 3 97
e 4 7
e 4 10
e 4 12
e 4 14
e 4 16
e 4 17
e 4 18
e 4 19
e 4 21
e 4 22
e 4 23
e 4 24
e 4 25
e 4 26
e 4 27
e 4 28
e 4 30
e 4 31
e 4 33
e 4 34
e 4 35
e 4 36
e 4 37
e 4 38
e 4 39
e 4 40
e 4 41
e 4 43
e 4 44
e 4 46
e 4 48
e 4 49
e 4 50
e 4 51
e 4 52
e 4 64
e 4 81
e 5 6
e 5 8
e 5 9
e 5 10
e 5 12
e 5 13
e 5 15
e 5 17
e 5 18
e 5 19
e 5 20
e 5 21
e 5 22
e 5 24
e 5 26
e 5 27
e 5 29
e 5 30
e 5 31
e 5 33
e 5 35
e 5 37
e 5 38
e 5 44
e 5 45
e 5 46
e 5 48
e 5 49
e 5 50
e 5 51
e 5 52
e 5 53
e 6 14
e 6 15
e 6 21
e 6 22
e 6 23
e 6 24
e 6 26
e 6 27
e 6 28
e 6 32
e 6 34
e 6 35
e 6 36
e 6 37
e 6 38
e 6 39
e 6 40
e 6 42
e 6 43
e 6 46
e 6 47
e 6 50
e 6 51
e 6 52
e 6 75
e 6 80
e 7 8
e 7 12
e 7 13
e 7 14
e 7 16
e 7 20
e 7 22
e 7 23
e 7 24
e 7 25
e 7 26
e 7 27
e 7 29
e 7 30
e 7 31
e 7 32
e 7 33
e 7 34
e 7 35
e 7 36
e 7 38
e 7 39
e 7 40
e 7 42
e 7 43
e 7 44
e 7 49
e 7 50
e 7 52
e 7 64
e 7 80
e 7 85
e 8 12
e 8 16
e 8 17
e 8 18
e 8 19
e 8 20
e 8 21
e 8 22
e 8 23
e 8 24
e 8 25
e 8 26
e 8 27
e 8 29
e 8 30
e 8 33
e 8 36
e 8 37
e 8 39
e 8 42
e 8 45
e 8 46
e 8 47
e 8 50
e 8 52
e 8 59
e 8 66
e 8 80
e 8 96
e 9 12
e 9 13
e 9 15
e 9 17
e 9 18
e 9 20
e 9 21
e 9 22
e 9 23
e 9 24
e 9 25
e 9 27
e 9 28
e 9 29
e 9 31
e 9 32
e 9 33
e 9 34
e 9 35
e 9 38
e 9 39
e 9 43
e 9 44
e 9 45
e 9 47
e 9 49
e 9 52
e 9 53
e 10 12
e 10 13
e 10 14
e 10 15
e 10 17
e 10 20
e 10 25
e 10 26
e 10 27
e 10 29
e 10 30
e 10 31
e 10 33
e 10 35
e 10 36
e 10 37
e 10 39
e 10 40
e 10 41
e 10 42
e 10 44
e 10 46
e 10 47
e 10 48
e 10 49
e 10 51
e 10 52
e 10 61
e 10 72
e 10 76
e 10 78
e 10 88
e 10 97
e 11 12
e 11 14
e 11 16
e 11 18
e 11 19
e 11 20
e 11 21
e 11 22
e 11 24
e 11 26
e 11 27
e 11 28
e 11 29
e 11 30
e 11 31
e 11 32
e 11 34
e 11 35
e 11 39
e 11 41
e 11 42
e 11 44
e 11 46
e 11 47
e 11 48
e 11 52
e 11 82
e 12 17
e 12 18
e 12 19
e 12 22
e 12 23
e 12 25
e 12 26
e 12 28
e 12 30
e 12 33
e 12 34
e 12 36
e 12 40
e 12 41
e 12 42
e 12 43
e 12 45
e 12 47
e 12 49
e 12 50
e 12 52
e 12 73
e 12 83
e 13 19
e 13 20
e 13 21
e 13 22
e 13 23
e 13 25
e 13 26
e 13 27
e 13 30
e 13 33
e 13 34
e 13 35
e 13 36
e 13 37
e 13 39
e 13 40
e 13 41
e 13 42
e 13 43
e 13 44
e 13 45
e 13 46
e 13 47
e 13 48
e 13 50
e 13 51
e 13 52
e 13 54
e 13 56
e 13 57
e 13 66
e 13 86
e 14 18
e 14 21
e 14 23
e 14 27
e 14 29
e 14 30
e 14 32
e 14 33
e 14 35
e 14 37
e 14 38
e 14 40
e 14 41
e 14 42
e 14 43
e 14 44
e 14 45
e 14 46
e 14 47
e 14 48
e 14 50
e 14 52
e 14 69
e 14 78
e 15 18
e 15 19
e 15 20
e 15 21
e 15 22
e 15 23
e 15 24
e 15 26
e 15 33
e 15 34
e 15 36
e 15 37
e 15 38
e 15 39
e 15 40
e 15 41
e 15 43
e 15 44
e 15 46
e 15 47
e 15 49
e 15 50
e 15 51
e 15 52
e 16 17
e 16 18
e 16 19
e 16 20
e 16 21
e 16 23
e 16 24
e 16 25
e 16 26
e 16 27
e 16 28
e 16 29
e 16 31
e 16 32
e 16 34
e 16 41
e 16 42
e 16 43
e 16 45
e 16 46
e 16 47
e 16 48
e 16 49
e 16 50
e 16 52
e 16 84
e 16 100
e 17 18
e 17 20
e 17 22
e 17 23
e 17 24
e 17 29
e 17 34
e 17 37
e 17 39
e 17 41
e 17 42
e 17 44
e 17 45
e 17 47
e 17 49
e 17 51
e 17 70
e 17 71
e 17 73
e 17 82
e 17 98
e 17 99
e 18 21
e 18 23
e 18 25
e 18 30
e 18 34
e 18 35
e 18 36
e 18 40
e 18 42
e 18 43
e 18 44
e 18 59
e 18 88
e 19 21
e 19 27
e 19 31
e 19 33
e 19 35
e 19 47
e 19 53
e 19 54
e 20 25
e 20 27
e 20 34
e 20 35
e 20 38
e 20 44
e 20 45
e 20 47
e 20 49
e 20 50
e 20 51
e 20 52
e 21 24
e 21 25
e 21 26
e 21 29
e 21 31
e 21 32
e 21 34
e 21 40
e 21 50
e 21 53
e 21 55
e 21 56
e 21 77
e 21 78
e 21 80
e 21 87
e 22 32
e 22 37
e 22 38
e 22 40
e 22 55
e 22 79
e 23 26
e 23 27
e 23 34
e 23 45
e 23 54
e 23 55
e 23 68
e 24 25
e 24 28
e 24 38
e 24 39
e 24 41
e 24 42
e 24 43
e 24 44
e 24 46
e 24 48
e 24 53
e 24 75
e 24 79
e 25 26
e 25 34
e 25 35
e 25 41
e 25 49
e 25 50
e 25 90
e 26 29
e 26 39
e 26 48
e 26 77
e 26 90
e 27 32
e 27 37
e 27 40
e 27 42
e 27 54
e 28 30
e 28 35
e 28 37
e 28 42
e 28 46
e 28 53
e 28 55
e 28 71
e 28 85
e 28 93
e 29 31
e 29 33
e 29 39
e 29 40
e 29 43
e 29 44
e 29 45
e 29 47
e 29 52
e 29 62
e 29 70
e 29 90
e 30 34
e 30 46
e 30 47
e 30 51
e 30 53
e 30 77
e 30 81
e 31 33
e 31 34
e 31 37
e 31 40
e 31 43
e 31 47
e 31 51
e 31 52
e 31 57
e 31 78
e 31 98
e 32 34
e 32 35
e 32 39
e 32 41
e 32 45
e 32 48
e 32 50
e 32 52
e 32 54
e 32 97
e 33 36
e 33 41
e 33 42
e 33 51
e 33 52
e 33 55
e 33 60
e 33 63
e 33 92
e 33 97
e 34 36
e 34 38
e 34 39
e 34 45
e 34 48
e 34 66
e 34 100
e 35 37
e 35 38
e 35 39
e 35 43
e 35 45
e 35 47
e 35 54
e 35 55
e 35 56
e 35 57
e 35 78
e 35 97
e 36 40
e 36 43
e 36 53
e 36 55
e 36 68
e 36 74
e 36 88
e 36 90
e 37 39
e 37 42
e 37 47
e 37 48
e 37 49
e 37 55
e 37 56
e 38 42
e 38 51
e 38 74
e 38 85
e 38 95
e 38 99
e 39 43
e 39 47
e 39 49
e 39 52
e 39 55
e 39 76
e 39 90
e 39 93
e 40 44
e 40 97
e 40 98
e 41 44
e 41 45
e 41 46
e 41 50
e 41 53
e 41 56
e 41 61
e 41 80
e 41 95
e 42 44
e 42 50
e 42 51
e 42 56
e 43 46
e 43 47
e 43 49
e 43 51
e 43 52
e 44 45
e 44 46
e 44 48
e 44 52
e 44 77
e 44 95
e 44 98
e 44 99
e 45 46
e 45 48
e 45 49
e 45 52
e 45 54
e 45 56
e 46 48
e 46 51
e 46 52
e 46 53
e 46 54
e 47 52
e 47 55
e 47 63
e 47 64
e 47 85
e 48 88
e 48 97
e 49 50
e 49 56
e 49 57
e 49 98
e 50 65
e 50 71
e 50 74
e 50 77
e 50 99
e 51 52
e 51 64
e 51 69
e 51 70
e 51 83
e 52 53
e 52 54
e 52 55
e 53 57
e 53 58
e 53 59
e 53 66
e 53 68
e 53 69
e 53 70
e 53 71
e 53 72
e 53 73
e 53 74
e 53 75
e 53 78
e 53 79
e 53 80
e 53 81
e 53 82
e 53 83
e 53 85
e 53 86
e 53 87
e 53 90
e 53 94
e 53 95
e 53 96
e 54 57
e 54 58
e 54 59
e 54 60
e 54 63
e 54 64
e 54 65
e 54 74
e 54 75
e 54 76
e 54 77
e 54 78
e 54 80
e 54 81
e 54 84
e 54 85
e 54 86
e 54 87
e 54 89
e 54 90
e 54 91
e 54 94
e 54 96
e 55 56
e 55 57
e 55 58
e 55 59
e 55 60
e 55 63
e 55 64
e 55 65
e 55 66
e 55 68
e 55 69
e 55 70
e 55 72
e 55 74
e 55 75
e 55 76
e 55 77
e 55 79
e 55 81
e 55 83
e 55 87
e 55 89
e 55 90
e 55 91
e 55 92
e 55 93
e 55 94
e 55 95
e 55 96
e 56 57
e 56 59
e 56 60
e 56 61
e 56 63
e 56 64
e 56 65
e 56 68
e 56 69
e 56 71
e 56 72
e 56 73
e 56 77
e 56 78
e 56 79
e 56 80
e 56 82
e 56 85
e 56 86
e 56 87
e 56 88
e 56 89
e 56 93
e 56 94
e 56 95
e 57 60
e 57 68
e 57 71
e 57 74
e 57 76
e 57 84
e 57 93
e 57 95
e 57 97
e 58 62
e 58 64
e 58 65
e 58 69
e 58 70
e 58 76
e 58 82
e 58 86
e 58 89
e 58 92
e 58 94
e 58 98
e 58 100
e 59 62
e 59 63
e 59 65
e 59 68
e 59 73
e 59 75
e 59 77
e 59 80
e 59 88
e 59 89
e 59 94
e 59 95
e 59 97
e 59 98
e 60 65
e 60 70
e 60 80
e 60 85
e 60 86
e 60 96
e 61 67
e 61 77
e 61 82
e 61 86
e 61 87
e 61 88
e 61 96
e 61 97
e 61 99
e 62 63
e 62 65
e 62 66
e 62 68
e 62 69
e 62 70
e 62 76
e 62 77
e 62 78
e 62 87
e 62 92
e 62 94
e 62 95
e 62 99
e 63 66
e 63 68
e 63 70
e 63 71
e 63 72
e 63 77
e 63 78
e 63 85
e 63 89
e 63 90
e 63 91
e 63 93
e 63 94
e 64 65
e 64 67
e 64 71
e 64 74
e 64 81
e 64 87
e 64 90
e 64 91
e 64 94
e 64 100
e 65 67
e 65 71
e 65 72
e 65 77
e 65 82
e 65 84
e 65 88
e 65 90
e 65 93
e 65 99
e 65 100
e 66 69
e 66 71
e 66 73
e 66 76
e 66 78
e 66 80
e 66 83
e 66 85
e 66 90
e 66 97
e 67 70
e 67 72
e 67 73
e 67 74
e 67 80
e 67 83
e 67 96
e 68 71
e 68 73
e 68 74
e 68 77
e 68 90
e 69 70
e 69 73
e 69 75
e 69 78
e 69 79
e 69 83
e 69 84
e 69 87
e 69 89
e 69 90
e 69 96
e 69 98
e 70 72
e 70 79
e 70 86
e 70 98
e 71 89
e 71 92
e 71 95
e 71 96
e 71 98
e 72 75
e 72 77
e 72 78
e 72 81
e 72 86
e 72 87
e 72 93
e 73 74
e 73 75
e 73 76
e 73 79
e 73 82
e 73 92
e 73 98
e 74 76
e 74 86
e 74 87
e 74 91
e 74 92
e 74 93
e 74 95
e 74 97
e 74 99
e 75 76
e 75 77
e 75 78
e 75 86
e 75 88
e 75 92
e 75 98
e 75 99
e 76 78
e 76 83
e 76 92
e 76 93
e 76 94
e 76 95
e 76 96
e 76 99
e 77 84
e 77 86
e 77 90
e 77 92
e 77 97
e 77 98
e 78 79
e 78 82
e 78 84
e 78 87
e 78 89
e 78 93
e 78 94
e 78 95
e 78 96
e 78 97
e 79 80
e 79 82
e 79 83
e 79 84
e 79 88
e 79 92
e 79 98
e 80 82
e 80 83
e 80 86
e 80 89
e 80 95
e 81 83
e 81 93
e 82 88
e 82 89
e 82 95
e 82 99
e 82 100
e 83 84
e 83 86
e 83 87
e 83 90
e 83 94
e 83 95
e 84 86
e 84 90
e 84 91
e 84 95
e 84 99
e 84 100
e 85 94
e 85 95
e 85 100
e 86 90
e 86 95
e 87 88
e 87 89
e 87 92
e 87 93
e 87 94
e 87 99
e 87 100
e 88 89
e 88 96
e 88 97
e 88 98
e 88 100
e 89 93
e 89 94
e 89 97
e 90 91
e 91 92
e 92 93
e 92 95
e 93 95
e 93 98
e 94 96
e 94 100
e 96 98
e 96 99
e 96 100
